
Gurobi 9.1.1 (win64) logging started Thu Mar 11 10:52:46 2021

Changed value of parameter LogFile to ../results/logs/log_samuel_kroger_2021_03_11_10_52_35.csv_2_1.log
   Prev:   Default: 
Gurobi Optimizer version 9.1.1 build v9.1.1rc0 (win64)
Thread count: 6 physical cores, 12 logical processors, using up to 12 threads
Optimize a model with 2778257 rows, 2882590 columns and 11704225 nonzeros
Model fingerprint: 0x7cbe9e3d
Variable types: 0 continuous, 2882590 integer (2882590 binary)
Coefficient statistics:
  Matrix range     [1e+00, 2e+00]
  Objective range  [1e+00, 1e+00]
  Bounds range     [1e+00, 1e+00]
  RHS range        [1e+00, 1e+00]
